10J3M/DAT/10J3MNNX-2.dat
10 3
37.0365 6.0858
38.3438 6.1922
14.62 3.8236
30.4896 5.5217
22.7394 4.7686
23.2592 4.8228
29.2614 5.4094
25.4111 5.0409
28.2405 5.3142
27.9362 5.2855
52.2647