10J3M/SOL/10J3MNNX-2.sol
solution status: optimal solution found
objective value:                     76.1472666666667
x#1#1                                               1 	(obj:0)
x#2#2                                               1 	(obj:0)
x#3#1                                               1 	(obj:0)
x#4#3                                               1 	(obj:0)
x#5#1                                               1 	(obj:0)
x#6#1                               0.271348866617111 	(obj:0)
x#6#2                               0.728651133382889 	(obj:0)
x#7#1                                               1 	(obj:0)
x#8#2                                               1 	(obj:0)
x#9#3                                               1 	(obj:0)
x#10#2                              0.417777148440988 	(obj:0)
x#10#3                              0.582222851559012 	(obj:0)
z                                    76.1472666666667 	(obj:1)
